c clasp version 2.1.1
c Reading from p23.cnf
c Solving...
s SATISFIABLE

c Models        : 1+    
c Time          : 1.044s (Solving: 0.24s 1st Model: 0.24s Unsat: 0.00s)
c CPU Time      : 1.040s
c Choices       : 12446
c Conflicts     : 853
c Restarts      : 2      (Average: 426.50 Last: 198)

c Variables     : 219725 (Eliminated: 68905 Frozen:    0)
c Constraints   : 253725 (Binary: 64.6% Ternary: 34.0% Other:  1.3%)
c Lemmas        : 853    (Binary:  0.4% Ternary:  1.3% Other: 98.4%)
c   Conflict    : 853    (Average Length: 34.3) 
c   Loop        : 0      (Average Length: 0.0) 
c   Other       : 0      (Average Length: 0.0)
c   Deleted     : 0     
